Minimize
 obj: 0 X_0_1
Subject To
 out_0:
  + 1 X_0_1 + 1 X_0_2 + 1 X_0_3 + 1 X_0_4 + 1 X_0_5 + 1 X_0_6 + 1 X_0_7 + 1 X_0_8
  + 1 X_0_9
  = 1
 in_0:
  + 1 X_1_0 + 1 X_2_0 + 1 X_3_0 + 1 X_4_0 + 1 X_5_0 + 1 X_6_0 + 1 X_7_0 + 1 X_8_0
  + 1 X_9_0
  = 1
 out_1:
  + 1 X_1_0 + 1 X_1_2 + 1 X_1_3 + 1 X_1_4 + 1 X_1_5 + 1 X_1_6 + 1 X_1_7 + 1 X_1_8
  + 1 X_1_9
  = 1
 in_1:
  + 1 X_0_1 + 1 X_2_1 + 1 X_3_1 + 1 X_4_1 + 1 X_5_1 + 1 X_6_1 + 1 X_7_1 + 1 X_8_1
  + 1 X_9_1
  = 1
 out_2:
  + 1 X_2_0 + 1 X_2_1 + 1 X_2_3 + 1 X_2_4 + 1 X_2_5 + 1 X_2_6 + 1 X_2_7 + 1 X_2_8
  + 1 X_2_9
  = 1
 in_2:
  + 1 X_0_2 + 1 X_1_2 + 1 X_3_2 + 1 X_4_2 + 1 X_5_2 + 1 X_6_2 + 1 X_7_2 + 1 X_8_2
  + 1 X_9_2
  = 1
 out_3:
  + 1 X_3_0 + 1 X_3_1 + 1 X_3_2 + 1 X_3_4 + 1 X_3_5 + 1 X_3_6 + 1 X_3_7 + 1 X_3_8
  + 1 X_3_9
  = 1
 in_3:
  + 1 X_0_3 + 1 X_1_3 + 1 X_2_3 + 1 X_4_3 + 1 X_5_3 + 1 X_6_3 + 1 X_7_3 + 1 X_8_3
  + 1 X_9_3
  = 1
 out_4:
  + 1 X_4_0 + 1 X_4_1 + 1 X_4_2 + 1 X_4_3 + 1 X_4_5 + 1 X_4_6 + 1 X_4_7 + 1 X_4_8
  + 1 X_4_9
  = 1
 in_4:
  + 1 X_0_4 + 1 X_1_4 + 1 X_2_4 + 1 X_3_4 + 1 X_5_4 + 1 X_6_4 + 1 X_7_4 + 1 X_8_4
  + 1 X_9_4
  = 1
 out_5:
  + 1 X_5_0 + 1 X_5_1 + 1 X_5_2 + 1 X_5_3 + 1 X_5_4 + 1 X_5_6 + 1 X_5_7 + 1 X_5_8
  + 1 X_5_9
  = 1
 in_5:
  + 1 X_0_5 + 1 X_1_5 + 1 X_2_5 + 1 X_3_5 + 1 X_4_5 + 1 X_6_5 + 1 X_7_5 + 1 X_8_5
  + 1 X_9_5
  = 1
 out_6:
  + 1 X_6_0 + 1 X_6_1 + 1 X_6_2 + 1 X_6_3 + 1 X_6_4 + 1 X_6_5 + 1 X_6_7 + 1 X_6_8
  + 1 X_6_9
  = 1
 in_6:
  + 1 X_0_6 + 1 X_1_6 + 1 X_2_6 + 1 X_3_6 + 1 X_4_6 + 1 X_5_6 + 1 X_7_6 + 1 X_8_6
  + 1 X_9_6
  = 1
 out_7:
  + 1 X_7_0 + 1 X_7_1 + 1 X_7_2 + 1 X_7_3 + 1 X_7_4 + 1 X_7_5 + 1 X_7_6 + 1 X_7_8
  + 1 X_7_9
  = 1
 in_7:
  + 1 X_0_7 + 1 X_1_7 + 1 X_2_7 + 1 X_3_7 + 1 X_4_7 + 1 X_5_7 + 1 X_6_7 + 1 X_8_7
  + 1 X_9_7
  = 1
 out_8:
  + 1 X_8_0 + 1 X_8_1 + 1 X_8_2 + 1 X_8_3 + 1 X_8_4 + 1 X_8_5 + 1 X_8_6 + 1 X_8_7
  + 1 X_8_9
  = 1
 in_8:
  + 1 X_0_8 + 1 X_1_8 + 1 X_2_8 + 1 X_3_8 + 1 X_4_8 + 1 X_5_8 + 1 X_6_8 + 1 X_7_8
  + 1 X_9_8
  = 1
 out_9:
  + 1 X_9_0 + 1 X_9_1 + 1 X_9_2 + 1 X_9_3 + 1 X_9_4 + 1 X_9_5 + 1 X_9_6 + 1 X_9_7
  + 1 X_9_8
  = 1
 in_9:
  + 1 X_0_9 + 1 X_1_9 + 1 X_2_9 + 1 X_3_9 + 1 X_4_9 + 1 X_5_9 + 1 X_6_9 + 1 X_7_9
  + 1 X_8_9
  = 1
 mtz_1_2:
  + 1 U1 - 1 U2 + 9 X_1_2
  <= 8
 mtz_1_3:
  + 1 U1 - 1 U3 + 9 X_1_3
  <= 8
 mtz_1_4:
  + 1 U1 - 1 U4 + 9 X_1_4
  <= 8
 mtz_1_5:
  + 1 U1 - 1 U5 + 9 X_1_5
  <= 8
 mtz_1_6:
  + 1 U1 - 1 U6 + 9 X_1_6
  <= 8
 mtz_1_7:
  + 1 U1 - 1 U7 + 9 X_1_7
  <= 8
 mtz_1_8:
  + 1 U1 - 1 U8 + 9 X_1_8
  <= 8
 mtz_1_9:
  + 1 U1 - 1 U9 + 9 X_1_9
  <= 8
 mtz_2_1:
  + 1 U2 - 1 U1 + 9 X_2_1
  <= 8
 mtz_2_3:
  + 1 U2 - 1 U3 + 9 X_2_3
  <= 8
 mtz_2_4:
  + 1 U2 - 1 U4 + 9 X_2_4
  <= 8
 mtz_2_5:
  + 1 U2 - 1 U5 + 9 X_2_5
  <= 8
 mtz_2_6:
  + 1 U2 - 1 U6 + 9 X_2_6
  <= 8
 mtz_2_7:
  + 1 U2 - 1 U7 + 9 X_2_7
  <= 8
 mtz_2_8:
  + 1 U2 - 1 U8 + 9 X_2_8
  <= 8
 mtz_2_9:
  + 1 U2 - 1 U9 + 9 X_2_9
  <= 8
 mtz_3_1:
  + 1 U3 - 1 U1 + 9 X_3_1
  <= 8
 mtz_3_2:
  + 1 U3 - 1 U2 + 9 X_3_2
  <= 8
 mtz_3_4:
  + 1 U3 - 1 U4 + 9 X_3_4
  <= 8
 mtz_3_5:
  + 1 U3 - 1 U5 + 9 X_3_5
  <= 8
 mtz_3_6:
  + 1 U3 - 1 U6 + 9 X_3_6
  <= 8
 mtz_3_7:
  + 1 U3 - 1 U7 + 9 X_3_7
  <= 8
 mtz_3_8:
  + 1 U3 - 1 U8 + 9 X_3_8
  <= 8
 mtz_3_9:
  + 1 U3 - 1 U9 + 9 X_3_9
  <= 8
 mtz_4_1:
  + 1 U4 - 1 U1 + 9 X_4_1
  <= 8
 mtz_4_2:
  + 1 U4 - 1 U2 + 9 X_4_2
  <= 8
 mtz_4_3:
  + 1 U4 - 1 U3 + 9 X_4_3
  <= 8
 mtz_4_5:
  + 1 U4 - 1 U5 + 9 X_4_5
  <= 8
 mtz_4_6:
  + 1 U4 - 1 U6 + 9 X_4_6
  <= 8
 mtz_4_7:
  + 1 U4 - 1 U7 + 9 X_4_7
  <= 8
 mtz_4_8:
  + 1 U4 - 1 U8 + 9 X_4_8
  <= 8
 mtz_4_9:
  + 1 U4 - 1 U9 + 9 X_4_9
  <= 8
 mtz_5_1:
  + 1 U5 - 1 U1 + 9 X_5_1
  <= 8
 mtz_5_2:
  + 1 U5 - 1 U2 + 9 X_5_2
  <= 8
 mtz_5_3:
  + 1 U5 - 1 U3 + 9 X_5_3
  <= 8
 mtz_5_4:
  + 1 U5 - 1 U4 + 9 X_5_4
  <= 8
 mtz_5_6:
  + 1 U5 - 1 U6 + 9 X_5_6
  <= 8
 mtz_5_7:
  + 1 U5 - 1 U7 + 9 X_5_7
  <= 8
 mtz_5_8:
  + 1 U5 - 1 U8 + 9 X_5_8
  <= 8
 mtz_5_9:
  + 1 U5 - 1 U9 + 9 X_5_9
  <= 8
 mtz_6_1:
  + 1 U6 - 1 U1 + 9 X_6_1
  <= 8
 mtz_6_2:
  + 1 U6 - 1 U2 + 9 X_6_2
  <= 8
 mtz_6_3:
  + 1 U6 - 1 U3 + 9 X_6_3
  <= 8
 mtz_6_4:
  + 1 U6 - 1 U4 + 9 X_6_4
  <= 8
 mtz_6_5:
  + 1 U6 - 1 U5 + 9 X_6_5
  <= 8
 mtz_6_7:
  + 1 U6 - 1 U7 + 9 X_6_7
  <= 8
 mtz_6_8:
  + 1 U6 - 1 U8 + 9 X_6_8
  <= 8
 mtz_6_9:
  + 1 U6 - 1 U9 + 9 X_6_9
  <= 8
 mtz_7_1:
  + 1 U7 - 1 U1 + 9 X_7_1
  <= 8
 mtz_7_2:
  + 1 U7 - 1 U2 + 9 X_7_2
  <= 8
 mtz_7_3:
  + 1 U7 - 1 U3 + 9 X_7_3
  <= 8
 mtz_7_4:
  + 1 U7 - 1 U4 + 9 X_7_4
  <= 8
 mtz_7_5:
  + 1 U7 - 1 U5 + 9 X_7_5
  <= 8
 mtz_7_6:
  + 1 U7 - 1 U6 + 9 X_7_6
  <= 8
 mtz_7_8:
  + 1 U7 - 1 U8 + 9 X_7_8
  <= 8
 mtz_7_9:
  + 1 U7 - 1 U9 + 9 X_7_9
  <= 8
 mtz_8_1:
  + 1 U8 - 1 U1 + 9 X_8_1
  <= 8
 mtz_8_2:
  + 1 U8 - 1 U2 + 9 X_8_2
  <= 8
 mtz_8_3:
  + 1 U8 - 1 U3 + 9 X_8_3
  <= 8
 mtz_8_4:
  + 1 U8 - 1 U4 + 9 X_8_4
  <= 8
 mtz_8_5:
  + 1 U8 - 1 U5 + 9 X_8_5
  <= 8
 mtz_8_6:
  + 1 U8 - 1 U6 + 9 X_8_6
  <= 8
 mtz_8_7:
  + 1 U8 - 1 U7 + 9 X_8_7
  <= 8
 mtz_8_9:
  + 1 U8 - 1 U9 + 9 X_8_9
  <= 8
 mtz_9_1:
  + 1 U9 - 1 U1 + 9 X_9_1
  <= 8
 mtz_9_2:
  + 1 U9 - 1 U2 + 9 X_9_2
  <= 8
 mtz_9_3:
  + 1 U9 - 1 U3 + 9 X_9_3
  <= 8
 mtz_9_4:
  + 1 U9 - 1 U4 + 9 X_9_4
  <= 8
 mtz_9_5:
  + 1 U9 - 1 U5 + 9 X_9_5
  <= 8
 mtz_9_6:
  + 1 U9 - 1 U6 + 9 X_9_6
  <= 8
 mtz_9_7:
  + 1 U9 - 1 U7 + 9 X_9_7
  <= 8
 mtz_9_8:
  + 1 U9 - 1 U8 + 9 X_9_8
  <= 8
 obj1:
  + 256 X_0_1 + 443 X_0_2 + 220 X_0_3 + 93 X_0_4 + 351 X_0_5 + 625 X_0_6 + 445 X_0_7 + 142 X_0_8
  + 239 X_0_9 + 256 X_1_0 + 657 X_1_2 + 457 X_1_3 + 318 X_1_4 + 581 X_1_5 + 726 X_1_6 + 355 X_1_7
  + 262 X_1_8 + 426 X_1_9 + 443 X_2_0 + 657 X_2_1 + 437 X_2_3 + 464 X_2_4 + 104 X_2_5 + 924 X_2_6
  + 604 X_2_7 + 396 X_2_8 + 547 X_2_9 + 220 X_3_0 + 457 X_3_1 + 437 X_3_2 + 139 X_3_4 + 333 X_3_5
  + 493 X_3_6 + 657 X_3_7 + 337 X_3_8 + 114 X_3_9 + 93 X_4_0 + 318 X_4_1 + 464 X_4_2 + 139 X_4_3
  + 363 X_4_5 + 539 X_4_6 + 538 X_4_7 + 231 X_4_8 + 146 X_4_9 + 351 X_5_0 + 581 X_5_1 + 104 X_5_2
  + 333 X_5_3 + 363 X_5_4 + 822 X_5_6 + 581 X_5_7 + 328 X_5_8 + 443 X_5_9 + 625 X_6_0 + 726 X_6_1
  + 924 X_6_2 + 493 X_6_3 + 539 X_6_4 + 822 X_6_5 + 1047 X_6_7 + 767 X_6_8 + 401 X_6_9 + 445 X_7_0
  + 355 X_7_1 + 604 X_7_2 + 657 X_7_3 + 538 X_7_4 + 581 X_7_5 + 1047 X_7_6 + 320 X_7_8 + 683 X_7_9
  + 142 X_8_0 + 262 X_8_1 + 396 X_8_2 + 337 X_8_3 + 231 X_8_4 + 328 X_8_5 + 767 X_8_6 + 320 X_8_7
  + 378 X_8_9 + 239 X_9_0 + 426 X_9_1 + 547 X_9_2 + 114 X_9_3 + 146 X_9_4 + 443 X_9_5 + 401 X_9_6
  + 683 X_9_7 + 378 X_9_8
  <= 1
 obj2:
  + 330 X_0_1 + 205 X_0_2 + 541 X_0_3 + 697 X_0_4 + 716 X_0_5 + 712 X_0_6 + 846 X_0_7 + 1189 X_0_8
  + 36 X_0_9 + 330 X_1_0 + 198 X_1_2 + 285 X_1_3 + 732 X_1_4 + 758 X_1_5 + 393 X_1_6 + 901 X_1_7
  + 990 X_1_8 + 363 X_1_9 + 205 X_2_0 + 198 X_2_1 + 338 X_2_3 + 580 X_2_4 + 604 X_2_5 + 529 X_2_6
  + 744 X_2_7 + 989 X_2_8 + 241 X_2_9 + 541 X_3_0 + 285 X_3_1 + 338 X_3_2 + 600 X_3_4 + 627 X_3_5
  + 237 X_3_6 + 763 X_3_7 + 705 X_3_8 + 577 X_3_9 + 697 X_4_0 + 732 X_4_1 + 580 X_4_2 + 600 X_4_3
  + 27 X_4_5 + 823 X_4_6 + 169 X_4_7 + 753 X_4_8 + 717 X_4_9 + 716 X_5_0 + 758 X_5_1 + 604 X_5_2
  + 627 X_5_3 + 27 X_5_4 + 850 X_5_6 + 143 X_5_7 + 765 X_5_8 + 736 X_5_9 + 712 X_6_0 + 393 X_6_1
  + 529 X_6_2 + 237 X_6_3 + 823 X_6_4 + 850 X_6_5 + 981 X_6_7 + 732 X_6_8 + 747 X_6_9 + 846 X_7_0
  + 901 X_7_1 + 744 X_7_2 + 763 X_7_3 + 169 X_7_4 + 143 X_7_5 + 981 X_7_6 + 804 X_7_8 + 863 X_7_9
  + 1189 X_8_0 + 990 X_8_1 + 989 X_8_2 + 705 X_8_3 + 753 X_8_4 + 765 X_8_5 + 732 X_8_6 + 804 X_8_7
  + 1224 X_8_9 + 36 X_9_0 + 363 X_9_1 + 241 X_9_2 + 577 X_9_3 + 717 X_9_4 + 736 X_9_5 + 747 X_9_6
  + 863 X_9_7 + 1224 X_9_8
  <= 2
 obj3:
  + 775 X_0_1 + 524 X_0_2 + 581 X_0_3 + 535 X_0_4 + 522 X_0_5 + 536 X_0_6 + 497 X_0_7 + 116 X_0_8
  + 307 X_0_9 + 775 X_1_0 + 264 X_1_2 + 554 X_1_3 + 264 X_1_4 + 253 X_1_5 + 617 X_1_6 + 757 X_1_7
  + 802 X_1_8 + 763 X_1_9 + 524 X_2_0 + 264 X_2_1 + 365 X_2_3 + 158 X_2_4 + 85 X_2_5 + 528 X_2_6
  + 632 X_2_7 + 540 X_2_8 + 503 X_2_9 + 581 X_3_0 + 554 X_3_1 + 365 X_3_2 + 520 X_3_4 + 448 X_3_5
  + 844 X_3_6 + 909 X_3_7 + 521 X_3_8 + 353 X_3_9 + 535 X_4_0 + 264 X_4_1 + 158 X_4_2 + 520 X_4_3
  + 73 X_4_5 + 389 X_4_6 + 512 X_4_7 + 584 X_4_8 + 599 X_4_9 + 522 X_5_0 + 253 X_5_1 + 85 X_5_2
  + 448 X_5_3 + 73 X_5_4 + 451 X_5_6 + 564 X_5_7 + 557 X_5_8 + 550 X_5_9 + 536 X_6_0 + 617 X_6_1
  + 528 X_6_2 + 844 X_6_3 + 389 X_6_4 + 451 X_6_5 + 155 X_6_7 + 641 X_6_8 + 767 X_6_9 + 497 X_7_0
  + 757 X_7_1 + 632 X_7_2 + 909 X_7_3 + 512 X_7_4 + 564 X_7_5 + 155 X_7_6 + 611 X_7_8 + 771 X_7_9
  + 116 X_8_0 + 802 X_8_1 + 540 X_8_2 + 521 X_8_3 + 584 X_8_4 + 557 X_8_5 + 641 X_8_6 + 611 X_8_7
  + 206 X_8_9 + 307 X_9_0 + 763 X_9_1 + 503 X_9_2 + 353 X_9_3 + 599 X_9_4 + 550 X_9_5 + 767 X_9_6
  + 771 X_9_7 + 206 X_9_8
  <= 3
Bounds
 1 <= U1 <= 9
 1 <= U2 <= 9
 1 <= U3 <= 9
 1 <= U4 <= 9
 1 <= U5 <= 9
 1 <= U6 <= 9
 1 <= U7 <= 9
 1 <= U8 <= 9
 1 <= U9 <= 9
Binary
 X_0_1
 X_0_2
 X_0_3
 X_0_4
 X_0_5
 X_0_6
 X_0_7
 X_0_8
 X_0_9
 X_1_0
 X_1_2
 X_1_3
 X_1_4
 X_1_5
 X_1_6
 X_1_7
 X_1_8
 X_1_9
 X_2_0
 X_2_1
 X_2_3
 X_2_4
 X_2_5
 X_2_6
 X_2_7
 X_2_8
 X_2_9
 X_3_0
 X_3_1
 X_3_2
 X_3_4
 X_3_5
 X_3_6
 X_3_7
 X_3_8
 X_3_9
 X_4_0
 X_4_1
 X_4_2
 X_4_3
 X_4_5
 X_4_6
 X_4_7
 X_4_8
 X_4_9
 X_5_0
 X_5_1
 X_5_2
 X_5_3
 X_5_4
 X_5_6
 X_5_7
 X_5_8
 X_5_9
 X_6_0
 X_6_1
 X_6_2
 X_6_3
 X_6_4
 X_6_5
 X_6_7
 X_6_8
 X_6_9
 X_7_0
 X_7_1
 X_7_2
 X_7_3
 X_7_4
 X_7_5
 X_7_6
 X_7_8
 X_7_9
 X_8_0
 X_8_1
 X_8_2
 X_8_3
 X_8_4
 X_8_5
 X_8_6
 X_8_7
 X_8_9
 X_9_0
 X_9_1
 X_9_2
 X_9_3
 X_9_4
 X_9_5
 X_9_6
 X_9_7
 X_9_8
End
